(set-info :source |printed by MathSAT|)
(declare-fun |main::local_14@3| () (_ BitVec 32))
(declare-fun |main::local_18@2| () (_ BitVec 32))
(assert (let ((.def_19 (bvult |main::local_14@3| |main::local_18@2|)))(let ((.def_21 (not .def_19)))(let ((.def_14 (= |main::local_18@2| (_ bv0 32))))(let ((.def_15 (not .def_14)))(let ((.def_12 (= |main::local_14@3| (_ bv1 32))))(let ((.def_17 (and .def_12 .def_15)))(let ((.def_57 (and .def_17 .def_21)))(let ((.def_22 (= |main::local_14@3| |main::local_18@2|)))(let ((.def_58 (and .def_22 .def_57))).def_58))))))))))